(declare-const X String)
; fsbuff\s+User-Agent\u{3A}from\u{3A}
(assert (str.in_re X (re.++ (str.to_re "fsbuff") (re.+ (re.union (str.to_re " ") (str.to_re "\u{9}") (str.to_re "\u{a}") (str.to_re "\u{c}") (str.to_re "\u{d}"))) (str.to_re "User-Agent:from:\u{a}"))))
(check-sat)
